70
1 0 70
2 0 55
2 1 25
3 0 74
3 1 51
3 2 95
4 0 100
4 1 69
4 2 44
4 3 61
5 0 17
5 1 91
5 2 92
5 3 15
5 4 58
6 0 86
6 1 74
6 2 75
6 3 63
6 4 7
6 5 14
7 0 2
7 1 16
7 2 48
7 3 45
7 4 63
7 5 55
7 6 24
8 0 6
8 1 34
8 2 68
8 3 25
8 4 4
8 5 43
8 6 40
8 7 98
9 0 46
9 1 64
9 2 53
9 3 43
9 4 35
9 5 8
9 6 60
9 7 15
9 8 91
10 0 78
10 1 89
10 2 75
10 3 23
10 4 80
10 5 40
10 6 43
10 7 85
10 8 4
10 9 88
11 0 28
11 1 70
11 2 33
11 3 96
11 4 39
11 5 43
11 6 20
11 7 11
11 8 15
11 9 7
11 10 55
12 0 92
12 1 28
12 2 52
12 3 17
12 4 94
12 5 27
12 6 44
12 7 72
12 8 8
12 9 41
12 10 38
12 11 63
13 0 20
13 1 71
13 2 27
13 3 12
13 4 67
13 5 20
13 6 66
13 7 20
13 8 66
13 9 35
13 10 31
13 11 39
13 12 72
14 0 86
14 1 97
14 2 60
14 3 85
14 4 96
14 5 53
14 6 17
14 7 97
14 8 78
14 9 78
14 10 36
14 11 72
14 12 66
14 13 53
15 0 48
15 1 86
15 2 41
15 3 90
15 4 55
15 5 67
15 6 82
15 7 84
15 8 37
15 9 20
15 10 100
15 11 31
15 12 100
15 13 31
15 14 25
16 0 74
16 1 40
16 2 73
16 3 73
16 4 56
16 5 57
16 6 65
16 7 94
16 8 100
16 9 33
16 10 51
16 11 80
16 12 47
16 13 90
16 14 10
16 15 1
17 0 12
17 1 56
17 2 13
17 3 79
17 4 51
17 5 26
17 6 75
17 7 27
17 8 45
17 9 92
17 10 76
17 11 6
17 12 36
17 13 81
17 14 56
17 15 92
17 16 85
18 0 16
18 1 3
18 2 40
18 3 23
18 4 98
18 5 81
18 6 92
18 7 27
18 8 73
18 9 72
18 10 71
18 11 34
18 12 28
18 13 43
18 14 50
18 15 77
18 16 34
18 17 37
19 0 97
19 1 11
19 2 23
19 3 66
19 4 28
19 5 52
19 6 80
19 7 55
19 8 16
19 9 60
19 10 72
19 11 51
19 12 55
19 13 27
19 14 57
19 15 17
19 16 55
19 17 62
19 18 41
20 0 56
20 1 27
20 2 75
20 3 66
20 4 43
20 5 92
20 6 5
20 7 69
20 8 63
20 9 8
20 10 52
20 11 24
20 12 80
20 13 10
20 14 88
20 15 64
20 16 77
20 17 4
20 18 81
20 19 55
21 0 59
21 1 52
21 2 43
21 3 48
21 4 99
21 5 53
21 6 81
21 7 56
21 8 61
21 9 2
21 10 32
21 11 7
21 12 49
21 13 73
21 14 89
21 15 91
21 16 45
21 17 68
21 18 62
21 19 92
21 20 57
22 0 28
22 1 30
22 2 65
22 3 74
22 4 94
22 5 70
22 6 23
22 7 98
22 8 60
22 9 82
22 10 17
22 11 12
22 12 69
22 13 31
22 14 42
22 15 99
22 16 31
22 17 87
22 18 96
22 19 18
22 20 72
22 21 33
23 0 72
23 1 94
23 2 36
23 3 59
23 4 67
23 5 6
23 6 7
23 7 79
23 8 28
23 9 47
23 10 21
23 11 33
23 12 84
23 13 9
23 14 77
23 15 54
23 16 21
23 17 17
23 18 76
23 19 17
23 20 100
23 21 4
23 22 48
24 0 12
24 1 29
24 2 8
24 3 35
24 4 83
24 5 45
24 6 41
24 7 53
24 8 43
24 9 55
24 10 44
24 11 44
24 12 57
24 13 41
24 14 35
24 15 86
24 16 45
24 17 49
24 18 31
24 19 40
24 20 53
24 21 86
24 22 65
24 23 31
25 0 85
25 1 23
25 2 60
25 3 100
25 4 7
25 5 64
25 6 27
25 7 86
25 8 63
25 9 25
25 10 78
25 11 100
25 12 50
25 13 43
25 14 99
25 15 24
25 16 61
25 17 8
25 18 5
25 19 37
25 20 83
25 21 85
25 22 70
25 23 44
25 24 6
26 0 58
26 1 27
26 2 74
26 3 92
26 4 44
26 5 60
26 6 61
26 7 100
26 8 19
26 9 28
26 10 37
26 11 65
26 12 88
26 13 19
26 14 85
26 15 82
26 16 71
26 17 99
26 18 39
26 19 48
26 20 94
26 21 18
26 22 39
26 23 48
26 24 11
26 25 84
27 0 58
27 1 2
27 2 78
27 3 9
27 4 71
27 5 1
27 6 85
27 7 8
27 8 36
27 9 3
27 10 91
27 11 85
27 12 98
27 13 67
27 14 24
27 15 41
27 16 40
27 17 41
27 18 53
27 19 3
27 20 46
27 21 36
27 22 29
27 23 39
27 24 40
27 25 56
27 26 58
28 0 16
28 1 26
28 2 63
28 3 58
28 4 25
28 5 43
28 6 83
28 7 4
28 8 60
28 9 99
28 10 8
28 11 69
28 12 48
28 13 57
28 14 31
28 15 9
28 16 48
28 17 85
28 18 26
28 19 61
28 20 78
28 21 2
28 22 62
28 23 42
28 24 30
28 25 56
28 26 98
28 27 67
29 0 86
29 1 48
29 2 20
29 3 38
29 4 51
29 5 69
29 6 11
29 7 51
29 8 51
29 9 13
29 10 47
29 11 41
29 12 75
29 13 94
29 14 81
29 15 57
29 16 56
29 17 73
29 18 52
29 19 23
29 20 15
29 21 74
29 22 29
29 23 57
29 24 16
29 25 43
29 26 74
29 27 23
29 28 15
30 0 82
30 1 88
30 2 55
30 3 85
30 4 63
30 5 85
30 6 74
30 7 55
30 8 7
30 9 76
30 10 89
30 11 5
30 12 62
30 13 98
30 14 49
30 15 96
30 16 45
30 17 92
30 18 88
30 19 26
30 20 19
30 21 17
30 22 87
30 23 46
30 24 11
30 25 80
30 26 30
30 27 73
30 28 5
30 29 78
31 0 46
31 1 83
31 2 57
31 3 16
31 4 51
31 5 84
31 6 28
31 7 39
31 8 34
31 9 79
31 10 18
31 11 69
31 12 57
31 13 89
31 14 51
31 15 72
31 16 61
31 17 88
31 18 55
31 19 72
31 20 88
31 21 69
31 22 17
31 23 90
31 24 76
31 25 43
31 26 29
31 27 77
31 28 82
31 29 47
31 30 40
32 0 75
32 1 28
32 2 6
32 3 77
32 4 19
32 5 96
32 6 69
32 7 17
32 8 56
32 9 100
32 10 33
32 11 13
32 12 61
32 13 21
32 14 7
32 15 98
32 16 70
32 17 76
32 18 90
32 19 31
32 20 51
32 21 58
32 22 56
32 23 68
32 24 86
32 25 80
32 26 83
32 27 39
32 28 53
32 29 88
32 30 58
32 31 2
33 0 7
33 1 47
33 2 44
33 3 85
33 4 4
33 5 100
33 6 9
33 7 30
33 8 33
33 9 65
33 10 24
33 11 26
33 12 31
33 13 15
33 14 5
33 15 64
33 16 7
33 17 49
33 18 46
33 19 79
33 20 97
33 21 68
33 22 64
33 23 41
33 24 19
33 25 90
33 26 65
33 27 20
33 28 17
33 29 90
33 30 86
33 31 37
33 32 94
34 0 31
34 1 88
34 2 67
34 3 88
34 4 37
34 5 94
34 6 81
34 7 32
34 8 18
34 9 1
34 10 2
34 11 1
34 12 32
34 13 9
34 14 50
34 15 46
34 16 81
34 17 51
34 18 86
34 19 61
34 20 43
34 21 8
34 22 69
34 23 37
34 24 93
34 25 45
34 26 10
34 27 89
34 28 80
34 29 15
34 30 71
34 31 76
34 32 51
34 33 97
35 0 40
35 1 38
35 2 34
35 3 77
35 4 88
35 5 22
35 6 37
35 7 90
35 8 95
35 9 79
35 10 16
35 11 69
35 12 85
35 13 39
35 14 8
35 15 91
35 16 20
35 17 13
35 18 56
35 19 88
35 20 29
35 21 63
35 22 57
35 23 82
35 24 96
35 25 51
35 26 1
35 27 72
35 28 7
35 29 56
35 30 8
35 31 43
35 32 42
35 33 13
35 34 58
36 0 15
36 1 66
36 2 17
36 3 82
36 4 39
36 5 48
36 6 99
36 7 52
36 8 99
36 9 15
36 10 73
36 11 95
36 12 81
36 13 13
36 14 84
36 15 21
36 16 25
36 17 46
36 18 37
36 19 27
36 20 75
36 21 5
36 22 76
36 23 29
36 24 66
36 25 10
36 26 38
36 27 26
36 28 46
36 29 23
36 30 3
36 31 15
36 32 6
36 33 17
36 34 17
36 35 80
37 0 60
37 1 94
37 2 65
37 3 56
37 4 15
37 5 97
37 6 6
37 7 23
37 8 9
37 9 57
37 10 10
37 11 79
37 12 9
37 13 71
37 14 57
37 15 14
37 16 4
37 17 94
37 18 79
37 19 67
37 20 32
37 21 98
37 22 68
37 23 44
37 24 20
37 25 39
37 26 72
37 27 30
37 28 35
37 29 19
37 30 53
37 31 23
37 32 62
37 33 39
37 34 85
37 35 68
37 36 80
38 0 84
38 1 7
38 2 85
38 3 75
38 4 93
38 5 67
38 6 91
38 7 29
38 8 82
38 9 18
38 10 84
38 11 71
38 12 42
38 13 50
38 14 37
38 15 68
38 16 36
38 17 76
38 18 4
38 19 12
38 20 38
38 21 96
38 22 48
38 23 11
38 24 18
38 25 21
38 26 49
38 27 2
38 28 56
38 29 17
38 30 39
38 31 39
38 32 25
38 33 1
38 34 70
38 35 32
38 36 99
38 37 17
39 0 30
39 1 23
39 2 66
39 3 55
39 4 51
39 5 44
39 6 41
39 7 99
39 8 69
39 9 80
39 10 24
39 11 13
39 12 40
39 13 41
39 14 52
39 15 5
39 16 16
39 17 10
39 18 19
39 19 28
39 20 43
39 21 15
39 22 76
39 23 8
39 24 23
39 25 66
39 26 44
39 27 4
39 28 56
39 29 25
39 30 85
39 31 42
39 32 68
39 33 15
39 34 17
39 35 80
39 36 64
39 37 91
39 38 82
40 0 95
40 1 90
40 2 19
40 3 89
40 4 99
40 5 74
40 6 39
40 7 90
40 8 23
40 9 81
40 10 11
40 11 74
40 12 27
40 13 21
40 14 63
40 15 78
40 16 33
40 17 70
40 18 100
40 19 42
40 20 69
40 21 6
40 22 34
40 23 80
40 24 93
40 25 70
40 26 52
40 27 21
40 28 26
40 29 4
40 30 25
40 31 53
40 32 6
40 33 18
40 34 21
40 35 74
40 36 55
40 37 3
40 38 94
40 39 25
41 0 9
41 1 74
41 2 45
41 3 78
41 4 66
41 5 22
41 6 73
41 7 78
41 8 39
41 9 14
41 10 86
41 11 78
41 12 24
41 13 49
41 14 14
41 15 24
41 16 24
41 17 84
41 18 53
41 19 51
41 20 87
41 21 66
41 22 46
41 23 24
41 24 41
41 25 51
41 26 52
41 27 30
41 28 48
41 29 90
41 30 88
41 31 88
41 32 98
41 33 5
41 34 25
41 35 53
41 36 20
41 37 98
41 38 76
41 39 22
41 40 83
42 0 62
42 1 19
42 2 67
42 3 11
42 4 79
42 5 35
42 6 60
42 7 36
42 8 30
42 9 42
42 10 52
42 11 56
42 12 59
42 13 76
42 14 37
42 15 91
42 16 57
42 17 45
42 18 5
42 19 34
42 20 55
42 21 39
42 22 54
42 23 42
42 24 52
42 25 96
42 26 42
42 27 36
42 28 9
42 29 47
42 30 75
42 31 74
42 32 92
42 33 81
42 34 65
42 35 31
42 36 40
42 37 22
42 38 22
42 39 15
42 40 91
42 41 92
43 0 39
43 1 69
43 2 88
43 3 6
43 4 4
43 5 67
43 6 65
43 7 41
43 8 38
43 9 91
43 10 66
43 11 40
43 12 40
43 13 49
43 14 52
43 15 70
43 16 3
43 17 74
43 18 6
43 19 50
43 20 14
43 21 11
43 22 33
43 23 83
43 24 64
43 25 80
43 26 21
43 27 98
43 28 28
43 29 76
43 30 5
43 31 64
43 32 83
43 33 46
43 34 51
43 35 32
43 36 89
43 37 44
43 38 56
43 39 31
43 40 46
43 41 70
43 42 29
44 0 2
44 1 88
44 2 23
44 3 92
44 4 70
44 5 91
44 6 46
44 7 30
44 8 75
44 9 15
44 10 28
44 11 65
44 12 6
44 13 80
44 14 93
44 15 44
44 16 22
44 17 69
44 18 1
44 19 55
44 20 52
44 21 99
44 22 25
44 23 27
44 24 98
44 25 3
44 26 98
44 27 55
44 28 95
44 29 17
44 30 25
44 31 78
44 32 93
44 33 59
44 34 9
44 35 98
44 36 67
44 37 58
44 38 58
44 39 95
44 40 80
44 41 45
44 42 32
44 43 4
45 0 40
45 1 44
45 2 83
45 3 52
45 4 31
45 5 100
45 6 80
45 7 61
45 8 17
45 9 45
45 10 13
45 11 65
45 12 36
45 13 93
45 14 51
45 15 18
45 16 46
45 17 97
45 18 62
45 19 68
45 20 80
45 21 25
45 22 30
45 23 29
45 24 24
45 25 36
45 26 47
45 27 84
45 28 30
45 29 57
45 30 43
45 31 96
45 32 27
45 33 93
45 34 82
45 35 8
45 36 81
45 37 31
45 38 52
45 39 65
45 40 32
45 41 4
45 42 17
45 43 78
45 44 5
46 0 36
46 1 8
46 2 26
46 3 64
46 4 87
46 5 74
46 6 63
46 7 68
46 8 58
46 9 26
46 10 62
46 11 34
46 12 34
46 13 27
46 14 38
46 15 41
46 16 72
46 17 35
46 18 4
46 19 100
46 20 61
46 21 81
46 22 77
46 23 86
46 24 17
46 25 48
46 26 29
46 27 22
46 28 79
46 29 92
46 30 32
46 31 36
46 32 25
46 33 98
46 34 74
46 35 45
46 36 28
46 37 87
46 38 28
46 39 40
46 40 20
46 41 99
46 42 90
46 43 64
46 44 24
46 45 28
47 0 44
47 1 16
47 2 77
47 3 78
47 4 2
47 5 24
47 6 70
47 7 72
47 8 21
47 9 61
47 10 51
47 11 26
47 12 22
47 13 5
47 14 85
47 15 75
47 16 36
47 17 67
47 18 61
47 19 16
47 20 63
47 21 34
47 22 94
47 23 93
47 24 19
47 25 2
47 26 54
47 27 52
47 28 5
47 29 92
47 30 32
47 31 33
47 32 32
47 33 90
47 34 13
47 35 79
47 36 64
47 37 37
47 38 18
47 39 87
47 40 88
47 41 59
47 42 51
47 43 16
47 44 10
47 45 29
47 46 35
48 0 31
48 1 35
48 2 88
48 3 48
48 4 64
48 5 88
48 6 72
48 7 81
48 8 100
48 9 75
48 10 17
48 11 77
48 12 29
48 13 96
48 14 49
48 15 33
48 16 22
48 17 58
48 18 68
48 19 65
48 20 19
48 21 57
48 22 91
48 23 73
48 24 42
48 25 4
48 26 17
48 27 51
48 28 62
48 29 48
48 30 19
48 31 33
48 32 93
48 33 96
48 34 79
48 35 75
48 36 90
48 37 31
48 38 30
48 39 100
48 40 65
48 41 6
48 42 53
48 43 65
48 44 55
48 45 31
48 46 61
48 47 34
49 0 13
49 1 100
49 2 67
49 3 54
49 4 98
49 5 25
49 6 90
49 7 62
49 8 71
49 9 63
49 10 91
49 11 96
49 12 56
49 13 71
49 14 11
49 15 68
49 16 98
49 17 3
49 18 54
49 19 17
49 20 30
49 21 51
49 22 56
49 23 66
49 24 37
49 25 87
49 26 16
49 27 51
49 28 77
49 29 58
49 30 88
49 31 75
49 32 2
49 33 47
49 34 54
49 35 25
49 36 71
49 37 88
49 38 34
49 39 61
49 40 73
49 41 17
49 42 100
49 43 28
49 44 85
49 45 82
49 46 98
49 47 98
49 48 34
50 0 48
50 1 96
50 2 14
50 3 46
50 4 74
50 5 13
50 6 91
50 7 100
50 8 46
50 9 98
50 10 10
50 11 8
50 12 86
50 13 63
50 14 8
50 15 1
50 16 88
50 17 91
50 18 43
50 19 95
50 20 28
50 21 57
50 22 86
50 23 52
50 24 68
50 25 66
50 26 77
50 27 71
50 28 47
50 29 68
50 30 45
50 31 75
50 32 18
50 33 4
50 34 74
50 35 71
50 36 86
50 37 18
50 38 68
50 39 10
50 40 55
50 41 11
50 42 51
50 43 61
50 44 83
50 45 39
50 46 96
50 47 82
50 48 5
50 49 71
51 0 77
51 1 63
51 2 79
51 3 71
51 4 86
51 5 53
51 6 56
51 7 54
51 8 56
51 9 7
51 10 81
51 11 43
51 12 86
51 13 25
51 14 86
51 15 28
51 16 54
51 17 46
51 18 19
51 19 84
51 20 72
51 21 38
51 22 21
51 23 33
51 24 11
51 25 96
51 26 60
51 27 20
51 28 1
51 29 17
51 30 63
51 31 65
51 32 95
51 33 49
51 34 21
51 35 3
51 36 29
51 37 7
51 38 53
51 39 14
51 40 45
51 41 3
51 42 42
51 43 25
51 44 39
51 45 58
51 46 7
51 47 13
51 48 54
51 49 61
51 50 46
52 0 63
52 1 40
52 2 11
52 3 78
52 4 44
52 5 39
52 6 57
52 7 67
52 8 11
52 9 75
52 10 18
52 11 100
52 12 52
52 13 53
52 14 47
52 15 69
52 16 36
52 17 98
52 18 70
52 19 51
52 20 18
52 21 88
52 22 23
52 23 19
52 24 29
52 25 61
52 26 59
52 27 100
52 28 40
52 29 9
52 30 99
52 31 70
52 32 83
52 33 70
52 34 49
52 35 76
52 36 72
52 37 93
52 38 14
52 39 83
52 40 53
52 41 49
52 42 76
52 43 20
52 44 72
52 45 87
52 46 10
52 47 60
52 48 52
52 49 77
52 50 63
52 51 56
53 0 7
53 1 77
53 2 27
53 3 26
53 4 31
53 5 33
53 6 63
53 7 47
53 8 64
53 9 79
53 10 71
53 11 15
53 12 88
53 13 6
53 14 9
53 15 70
53 16 29
53 17 26
53 18 3
53 19 3
53 20 64
53 21 24
53 22 6
53 23 77
53 24 59
53 25 2
53 26 95
53 27 50
53 28 72
53 29 43
53 30 16
53 31 73
53 32 24
53 33 51
53 34 12
53 35 88
53 36 5
53 37 49
53 38 97
53 39 78
53 40 57
53 41 35
53 42 63
53 43 14
53 44 84
53 45 32
53 46 27
53 47 16
53 48 52
53 49 81
53 50 67
53 51 31
53 52 84
54 0 66
54 1 82
54 2 75
54 3 80
54 4 63
54 5 99
54 6 2
54 7 95
54 8 59
54 9 4
54 10 1
54 11 63
54 12 79
54 13 53
54 14 37
54 15 63
54 16 15
54 17 21
54 18 65
54 19 47
54 20 59
54 21 70
54 22 4
54 23 75
54 24 61
54 25 55
54 26 55
54 27 46
54 28 78
54 29 95
54 30 73
54 31 10
54 32 89
54 33 83
54 34 51
54 35 84
54 36 87
54 37 3
54 38 73
54 39 38
54 40 62
54 41 90
54 42 25
54 43 100
54 44 53
54 45 41
54 46 98
54 47 98
54 48 31
54 49 65
54 50 9
54 51 59
54 52 26
54 53 42
55 0 15
55 1 4
55 2 27
55 3 1
55 4 8
55 5 25
55 6 5
55 7 68
55 8 21
55 9 38
55 10 53
55 11 30
55 12 70
55 13 35
55 14 30
55 15 11
55 16 11
55 17 82
55 18 53
55 19 65
55 20 100
55 21 43
55 22 81
55 23 26
55 24 82
55 25 23
55 26 86
55 27 77
55 28 36
55 29 57
55 30 99
55 31 22
55 32 58
55 33 95
55 34 72
55 35 74
55 36 67
55 37 47
55 38 10
55 39 91
55 40 53
55 41 8
55 42 49
55 43 29
55 44 14
55 45 56
55 46 84
55 47 91
55 48 40
55 49 6
55 50 90
55 51 90
55 52 48
55 53 66
55 54 75
56 0 57
56 1 75
56 2 10
56 3 47
56 4 55
56 5 81
56 6 83
56 7 16
56 8 88
56 9 19
56 10 93
56 11 43
56 12 23
56 13 81
56 14 63
56 15 93
56 16 42
56 17 13
56 18 38
56 19 92
56 20 8
56 21 71
56 22 67
56 23 60
56 24 13
56 25 56
56 26 30
56 27 79
56 28 35
56 29 48
56 30 54
56 31 42
56 32 25
56 33 33
56 34 36
56 35 51
56 36 94
56 37 84
56 38 97
56 39 87
56 40 92
56 41 50
56 42 6
56 43 75
56 44 74
56 45 53
56 46 52
56 47 93
56 48 7
56 49 12
56 50 69
56 51 14
56 52 62
56 53 29
56 54 30
56 55 85
57 0 97
57 1 12
57 2 59
57 3 62
57 4 21
57 5 21
57 6 39
57 7 77
57 8 97
57 9 66
57 10 18
57 11 95
57 12 24
57 13 79
57 14 22
57 15 78
57 16 100
57 17 54
57 18 43
57 19 89
57 20 76
57 21 25
57 22 61
57 23 80
57 24 23
57 25 9
57 26 7
57 27 50
57 28 92
57 29 65
57 30 86
57 31 88
57 32 44
57 33 12
57 34 17
57 35 8
57 36 59
57 37 29
57 38 45
57 39 50
57 40 65
57 41 33
57 42 56
57 43 26
57 44 51
57 45 83
57 46 78
57 47 6
57 48 38
57 49 83
57 50 56
57 51 78
57 52 39
57 53 71
57 54 50
57 55 46
57 56 19
58 0 11
58 1 57
58 2 32
58 3 44
58 4 35
58 5 97
58 6 96
58 7 85
58 8 1
58 9 94
58 10 5
58 11 91
58 12 58
58 13 28
58 14 98
58 15 80
58 16 32
58 17 74
58 18 33
58 19 97
58 20 89
58 21 27
58 22 26
58 23 26
58 24 25
58 25 82
58 26 98
58 27 73
58 28 90
58 29 28
58 30 98
58 31 55
58 32 55
58 33 70
58 34 77
58 35 53
58 36 66
58 37 86
58 38 17
58 39 16
58 40 58
58 41 82
58 42 52
58 43 32
58 44 13
58 45 12
58 46 16
58 47 96
58 48 90
58 49 59
58 50 35
58 51 43
58 52 54
58 53 14
58 54 25
58 55 20
58 56 93
58 57 80
59 0 59
59 1 32
59 2 92
59 3 99
59 4 43
59 5 64
59 6 5
59 7 82
59 8 80
59 9 78
59 10 45
59 11 78
59 12 39
59 13 40
59 14 79
59 15 21
59 16 44
59 17 9
59 18 9
59 19 36
59 20 50
59 21 10
59 22 54
59 23 6
59 24 75
59 25 65
59 26 94
59 27 5
59 28 11
59 29 58
59 30 18
59 31 76
59 32 19
59 33 52
59 34 91
59 35 96
59 36 84
59 37 91
59 38 38
59 39 53
59 40 4
59 41 49
59 42 11
59 43 41
59 44 12
59 45 12
59 46 78
59 47 31
59 48 70
59 49 4
59 50 57
59 51 92
59 52 81
59 53 2
59 54 81
59 55 51
59 56 9
59 57 80
59 58 69
60 0 30
60 1 5
60 2 93
60 3 41
60 4 100
60 5 68
60 6 95
60 7 95
60 8 27
60 9 8
60 10 38
60 11 39
60 12 8
60 13 70
60 14 5
60 15 44
60 16 25
60 17 48
60 18 71
60 19 70
60 20 63
60 21 99
60 22 92
60 23 60
60 24 63
60 25 24
60 26 77
60 27 30
60 28 18
60 29 96
60 30 84
60 31 78
60 32 20
60 33 27
60 34 38
60 35 1
60 36 30
60 37 25
60 38 83
60 39 100
60 40 14
60 41 77
60 42 96
60 43 89
60 44 80
60 45 48
60 46 33
60 47 60
60 48 6
60 49 3
60 50 88
60 51 64
60 52 30
60 53 69
60 54 81
60 55 2
60 56 68
60 57 12
60 58 3
60 59 51
61 0 58
61 1 89
61 2 91
61 3 47
61 4 54
61 5 94
61 6 8
61 7 24
61 8 28
61 9 24
61 10 48
61 11 74
61 12 32
61 13 18
61 14 97
61 15 54
61 16 48
61 17 48
61 18 11
61 19 94
61 20 23
61 21 74
61 22 6
61 23 53
61 24 56
61 25 85
61 26 56
61 27 37
61 28 1
61 29 90
61 30 55
61 31 75
61 32 88
61 33 26
61 34 77
61 35 21
61 36 93
61 37 4
61 38 56
61 39 19
61 40 86
61 41 9
61 42 64
61 43 54
61 44 52
61 45 17
61 46 43
61 47 81
61 48 79
61 49 9
61 50 46
61 51 98
61 52 21
61 53 84
61 54 74
61 55 8
61 56 10
61 57 100
61 58 19
61 59 79
61 60 68
62 0 3
62 1 52
62 2 10
62 3 35
62 4 22
62 5 18
62 6 56
62 7 24
62 8 31
62 9 16
62 10 65
62 11 62
62 12 19
62 13 91
62 14 32
62 15 80
62 16 3
62 17 57
62 18 82
62 19 66
62 20 93
62 21 20
62 22 28
62 23 89
62 24 80
62 25 98
62 26 64
62 27 50
62 28 14
62 29 25
62 30 97
62 31 36
62 32 91
62 33 2
62 34 24
62 35 73
62 36 56
62 37 32
62 38 6
62 39 1
62 40 14
62 41 46
62 42 1
62 43 24
62 44 84
62 45 19
62 46 49
62 47 98
62 48 47
62 49 15
62 50 30
62 51 74
62 52 70
62 53 23
62 54 34
62 55 4
62 56 16
62 57 71
62 58 13
62 59 63
62 60 60
62 61 30
63 0 2
63 1 63
63 2 75
63 3 39
63 4 40
63 5 63
63 6 65
63 7 20
63 8 16
63 9 83
63 10 46
63 11 64
63 12 19
63 13 89
63 14 13
63 15 2
63 16 84
63 17 6
63 18 44
63 19 93
63 20 47
63 21 76
63 22 15
63 23 99
63 24 54
63 25 70
63 26 47
63 27 22
63 28 93
63 29 5
63 30 94
63 31 24
63 32 38
63 33 49
63 34 51
63 35 63
63 36 27
63 37 100
63 38 34
63 39 4
63 40 12
63 41 78
63 42 68
63 43 92
63 44 53
63 45 63
63 46 86
63 47 4
63 48 45
63 49 59
63 50 11
63 51 5
63 52 95
63 53 95
63 54 96
63 55 86
63 56 1
63 57 58
63 58 20
63 59 51
63 60 82
63 61 45
63 62 91
64 0 78
64 1 73
64 2 68
64 3 77
64 4 86
64 5 88
64 6 46
64 7 84
64 8 72
64 9 92
64 10 81
64 11 56
64 12 97
64 13 70
64 14 84
64 15 40
64 16 37
64 17 57
64 18 14
64 19 73
64 20 43
64 21 67
64 22 43
64 23 61
64 24 56
64 25 55
64 26 47
64 27 67
64 28 75
64 29 85
64 30 98
64 31 28
64 32 81
64 33 92
64 34 15
64 35 68
64 36 67
64 37 52
64 38 76
64 39 66
64 40 15
64 41 17
64 42 16
64 43 15
64 44 26
64 45 62
64 46 59
64 47 69
64 48 1
64 49 60
64 50 63
64 51 56
64 52 17
64 53 77
64 54 67
64 55 36
64 56 53
64 57 54
64 58 65
64 59 87
64 60 61
64 61 27
64 62 75
64 63 82
65 0 82
65 1 82
65 2 44
65 3 83
65 4 54
65 5 67
65 6 16
65 7 51
65 8 68
65 9 100
65 10 74
65 11 68
65 12 56
65 13 34
65 14 9
65 15 3
65 16 30
65 17 90
65 18 80
65 19 77
65 20 100
65 21 51
65 22 82
65 23 9
65 24 39
65 25 85
65 26 30
65 27 48
65 28 76
65 29 41
65 30 16
65 31 15
65 32 30
65 33 28
65 34 5
65 35 18
65 36 27
65 37 87
65 38 82
65 39 19
65 40 51
65 41 99
65 42 60
65 43 47
65 44 25
65 45 97
65 46 6
65 47 9
65 48 23
65 49 77
65 50 56
65 51 32
65 52 64
65 53 20
65 54 18
65 55 24
65 56 30
65 57 74
65 58 90
65 59 69
65 60 19
65 61 63
65 62 35
65 63 68
65 64 14
66 0 2
66 1 93
66 2 96
66 3 35
66 4 63
66 5 27
66 6 49
66 7 13
66 8 5
66 9 27
66 10 81
66 11 81
66 12 56
66 13 16
66 14 75
66 15 95
66 16 31
66 17 46
66 18 91
66 19 21
66 20 4
66 21 58
66 22 70
66 23 39
66 24 76
66 25 64
66 26 14
66 27 67
66 28 17
66 29 60
66 30 50
66 31 6
66 32 52
66 33 81
66 34 56
66 35 41
66 36 35
66 37 75
66 38 14
66 39 66
66 40 34
66 41 17
66 42 91
66 43 15
66 44 4
66 45 38
66 46 4
66 47 10
66 48 37
66 49 3
66 50 87
66 51 67
66 52 10
66 53 78
66 54 75
66 55 15
66 56 66
66 57 81
66 58 83
66 59 14
66 60 11
66 61 71
66 62 29
66 63 100
66 64 95
66 65 65
67 0 46
67 1 58
67 2 23
67 3 63
67 4 67
67 5 32
67 6 19
67 7 8
67 8 80
67 9 8
67 10 10
67 11 44
67 12 2
67 13 25
67 14 42
67 15 24
67 16 6
67 17 21
67 18 19
67 19 89
67 20 90
67 21 85
67 22 31
67 23 23
67 24 1
67 25 13
67 26 23
67 27 43
67 28 23
67 29 50
67 30 5
67 31 2
67 32 12
67 33 94
67 34 18
67 35 85
67 36 33
67 37 79
67 38 98
67 39 47
67 40 18
67 41 68
67 42 12
67 43 23
67 44 71
67 45 31
67 46 46
67 47 88
67 48 76
67 49 61
67 50 77
67 51 76
67 52 88
67 53 96
67 54 58
67 55 64
67 56 11
67 57 11
67 58 97
67 59 89
67 60 91
67 61 18
67 62 8
67 63 52
67 64 89
67 65 87
67 66 68
68 0 30
68 1 3
68 2 64
68 3 6
68 4 96
68 5 41
68 6 72
68 7 3
68 8 18
68 9 99
68 10 90
68 11 95
68 12 96
68 13 62
68 14 74
68 15 85
68 16 40
68 17 48
68 18 51
68 19 28
68 20 13
68 21 61
68 22 99
68 23 27
68 24 94
68 25 21
68 26 6
68 27 67
68 28 20
68 29 93
68 30 52
68 31 75
68 32 21
68 33 17
68 34 75
68 35 65
68 36 68
68 37 36
68 38 5
68 39 28
68 40 70
68 41 49
68 42 83
68 43 69
68 44 15
68 45 53
68 46 88
68 47 93
68 48 40
68 49 47
68 50 54
68 51 2
68 52 51
68 53 99
68 54 44
68 55 52
68 56 61
68 57 25
68 58 2
68 59 76
68 60 91
68 61 9
68 62 18
68 63 82
68 64 61
68 65 63
68 66 67
68 67 76
69 0 73
69 1 31
69 2 4
69 3 70
69 4 55
69 5 52
69 6 40
69 7 73
69 8 14
69 9 54
69 10 16
69 11 84
69 12 29
69 13 54
69 14 49
69 15 17
69 16 74
69 17 61
69 18 35
69 19 48
69 20 51
69 21 26
69 22 20
69 23 51
69 24 80
69 25 83
69 26 70
69 27 64
69 28 66
69 29 63
69 30 6
69 31 8
69 32 55
69 33 92
69 34 94
69 35 41
69 36 26
69 37 97
69 38 92
69 39 32
69 40 8
69 41 76
69 42 99
69 43 72
69 44 100
69 45 16
69 46 60
69 47 74
69 48 34
69 49 60
69 50 21
69 51 13
69 52 21
69 53 50
69 54 39
69 55 19
69 56 63
69 57 15
69 58 87
69 59 19
69 60 14
69 61 64
69 62 11
69 63 90
69 64 31
69 65 6
69 66 33
69 67 76
69 68 56
